p cnf 36 101
a 11 28 0
e 1 2 3 4 5 6 7 8 9 10 12 13 14 15 16 17 18 19 20 21 22 23 24 25 26 27 29 30 31 32 33 34 35 36 0
-4 -2 0
-4 3 0
2 -3 4 0
-5 -4 0
-5 3 0
4 -3 5 0
-6 1 0
-6 -5 0
-1 5 6 0
-8 7 0
-8 -6 0
-7 6 8 0
-9 1 0
-9 8 0
-1 -8 9 0
-10 6 0
-10 -9 0
-6 9 10 0
-11 -7 -12 0
11 7 -12 0
-11 7 12 0
11 -7 12 0
13 -10 0
13 12 0
10 -12 -13 0
-15 -14 0
-15 6 0
14 -6 15 0
-17 7 -18 0
17 -7 -18 0
-17 -7 18 0
17 7 18 0
-19 -16 0
-19 -18 0
16 18 19 0
-20 7 0
-20 -6 0
-7 6 20 0
-21 -19 0
-21 -20 0
19 20 21 0
15 -21 -22 0
-15 21 -22 0
15 21 22 0
-15 -21 22 0
23 -7 0
23 5 0
7 -5 -23 0
-2 23 -24 0
2 -23 -24 0
-2 -23 24 0
2 23 24 0
-25 -17 0
-25 8 0
17 -8 25 0
26 24 0
26 -25 0
-24 25 -26 0
27 -22 0
27 -26 0
22 26 -27 0
28 -4 0
28 7 0
4 -7 -28 0
29 28 0
29 16 0
-28 -16 -29 0
30 29 0
30 -8 0
-29 8 -30 0
31 6 0
31 2 0
-6 -2 -31 0
-32 28 0
-32 17 0
-28 -17 32 0
31 32 -33 0
-31 -32 -33 0
31 -32 33 0
-31 32 33 0
30 33 -34 0
-30 -33 -34 0
30 -33 34 0
-30 33 34 0
-27 34 -35 0
27 -34 -35 0
-27 -34 35 0
27 34 35 0
36 -13 0
36 35 0
13 -35 -36 0
26 18 -31 -25 -17 0
33 9 -23 20 -16 27 32 -15 0
-3 26 7 -12 22 16 0
28 -25 10 -17 -12 0
28 26 4 22 0
-20 17 -6 15 0
11 -26 23 4 -30 0
-12 -25 -30 26 -29 -17 -13 0
4 -32 -20 27 -14 24 0
36 0
